12 48 6 10
17 12 14 16 10 13 15 11 2 8 11 5 7 13 11 7 17 11 16 13 12 16 3 11 17 1 6 2 7 15 8 20 4 14 1 10 9 10 17 8 3 5 19 2 14 16 19 12 
0.85 3.13 6.33 1.83 7.15 3.21 2.83 5.59 15.48 9.36 2.48 14.11 3.57 3.67 9.55 8.66 1.98 5.15 9.56 2.6 14.96 10.29 3.61 14.77 5.01 2.25 0.07 0.82 10.55 6.39 6.56 5.83 3.97 0.56 9.57 15.46 7.64 1 13.23 11.78 11.04 10.7 0.42 13.25 12.37 14.83 7.06 5.09 
15.91 2.51 3.05 4.15 0.25 1.94 12.21 11.33 10.29 9.76 13.85 8.72 7.46 6.77 10.24 4.63 4.66 1.9 13.84 2.52 8.13 15.83 5.36 12.47 7.44 13.92 1.33 0.73 3.25 5.99 3.45 7.24 7.21 15.59 6.18 11.42 9.32 8.56 9.42 2.91 11.09 9.28 15.86 1.59 14.42 1.41 11.7 12.02 
15.86 1.51 8.9 12.95 11.39 8.38 2.18 2.72 13.96 10.43 0.48 1.57 13.73 0.94 14.09 10.09 0.16 12.76 7.65 2.31 10.18 2.55 15.88 13.16 4.96 10.83 0.22 6.8 5.38 13.15 2.85 6.9 15.4 3.72 3.06 4.4 10.02 15.25 7.87 1.3 6.61 7.54 14.96 12.02 0 8.82 7.1 0.19 
11.86 12.94 15.09 12.36 7.91 9.62 15 0.73 8.83 5.73 3.2 11.71 7.75 3.86 15.03 2.25 3.31 2.29 9.6 8.24 9.15 5.34 1.06 15.33 10.23 11.32 11.88 3.29 6.7 7.56 4.93 6.24 14.19 15.25 15.32 9.26 12.61 3 2.87 3.26 6.44 15.97 5.31 8.82 6.38 7.43 15.92 11.83 
7.48 10.4 9.44 9.44 9.32 7.32 12.15 6.19 8 3.96 9.9 15.54 7.03 8.17 3.82 6.57 2.08 9.73 5.86 15.48 3.86 7.38 2.89 2.05 1.36 7.57 11.58 4.44 10.22 7.46 10.84 13.58 8.51 0.91 9.73 10.35 5.59 1.72 10.04 15.8 3.92 7.01 15.39 4.91 12.2 11.07 1.23 11.65 
14.43 4.89 4.72 11.27 15.24 10.26 12.83 6.03 10.22 5.25 3.69 12.4 1.47 14.73 4.78 13.19 6.22 2.86 12.59 11.75 6.06 2.23 7.3 12.37 9.43 14.23 0.36 5.57 10.32 5.24 6.36 10.44 0.55 4.33 7.64 9.34 15.5 12.81 11.86 2.82 14.52 15.65 11.3 6.91 12.36 0.72 12.46 1.13 
8 8 8 8 8 8 8 8 8 8 8 8 8 8 8 8 8 8 8 8 8 8 8 8 8 8 8 8 8 8 8 8 8 8 8 8 8 8 8 8 8 8 8 8 8 8 8 8 
4.6 15.7 4.28 1.37 7.85 13.03 2.76 3.83 15.92 10.45 6.14 0.37 12.89 9.24 3.55 8.41 3.17 11.08 2.69 11.66 10.56 3.28 11.44 7.27 0.73 14.73 5.79 6.51 6.45 15.59 10.81 7.92 5.74 6.34 15.18 4.8 3.27 7.85 12.4 9.11 14.44 1.2 14.18 5.08 1.86 1.64 0.83 5.24 
3.48 12.27 7.1 4.81 13.31 15.91 6.2 6.09 15.81 9.6 14.4 1.64 10.77 14.23 7.52 7.51 14.93 12.9 3.74 11.9 15.12 11.95 14.3 15.62 12.81 3.85 5.08 7.2 14.58 13.09 14.73 11.34 4.25 0.33 1.57 4.62 11.69 8.48 9.18 10.03 6.38 13.18 4.2 12.01 8.44 11.83 5 10.1 
3.6 3.76 1.45 10.63 3.68 10.08 7.55 10.7 13.45 6.79 1.5 2.13 12.3 4.09 5.85 0.54 9.57 0.29 1.81 14.87 10.98 13.15 14.88 10.99 10.2 8.46 15.38 8.09 4.38 10.13 3.62 14.36 12.5 5.09 1.81 6.49 14.24 13.97 13.62 5.95 6.16 12.51 5.56 11.9 4.29 9.28 15.48 7.1 
11.28 5.33 8.22 9.31 4.55 15.46 2.02 7.31 14.71 9.49 11.55 1.9 11.88 4.9 6.71 12.6 7.61 15.91 1.53 5.64 12.21 2.8 11.01 8.23 3.96 3.59 15.37 13.59 9.8 12.79 2.97 15.69 2.91 15.53 1.01 8.09 3.26 10.07 8.54 6.85 13.53 1.4 7.06 2.85 12.52 8.54 5.89 6.07 
15.12 12.27 9.15 15.37 10.42 7.9 2.54 1.66 9.32 14.05 10.07 8.05 6.62 0.84 9.96 8.85 4.22 8.35 1.4 10.71 3.77 13.29 11.54 15.52 12.46 10.45 12.15 10.03 14.85 11.34 10.96 11.85 15.04 14.83 11.17 6.9 1.47 3.45 4.78 5.67 8.46 9.78 11.39 13.08 7.33 8.15 6.9 12.93 
1 1 1 1 1 1 1 1 1 1 1 1 1 1 1 1 1 1 1 1 1 1 1 1 1 1 1 1 1 1 1 1 1 1 1 1 1 1 1 1 1 1 1 1 1 1 1 1 
1 1 1 1 1 1 1 1 1 1 1 1 1 1 1 1 1 1 1 1 1 1 1 1 1 1 1 1 1 1 1 1 1 1 1 1 1 1 1 1 1 1 1 1 1 1 1 1 
1 1 1 1 1 1 1 1 1 1 1 1 1 1 1 1 1 1 1 1 1 1 1 1 1 1 1 1 1 1 1 1 1 1 1 1 1 1 1 1 1 1 1 1 1 1 1 1 
1 1 1 1 1 1 1 1 1 1 1 1 1 1 1 1 1 1 1 1 1 1 1 1 1 1 1 1 1 1 1 1 1 1 1 1 1 1 1 1 1 1 1 1 1 1 1 1 
1 1 1 1 1 1 1 1 1 1 1 1 1 1 1 1 1 1 1 1 1 1 1 1 1 1 1 1 1 1 1 1 1 1 1 1 1 1 1 1 1 1 1 1 1 1 1 1 
1 1 1 1 1 1 1 1 1 1 1 1 1 1 1 1 1 1 1 1 1 1 1 1 1 1 1 1 1 1 1 1 1 1 1 1 1 1 1 1 1 1 1 1 1 1 1 1 
1 1 1 1 1 1 1 1 1 1 1 1 1 1 1 1 1 1 1 1 1 1 1 1 1 1 1 1 1 1 1 1 1 1 1 1 1 1 1 1 1 1 1 1 1 1 1 1 
1 1 1 1 1 1 1 1 1 1 1 1 1 1 1 1 1 1 1 1 1 1 1 1 1 1 1 1 1 1 1 1 1 1 1 1 1 1 1 1 1 1 1 1 1 1 1 1 
1 1 1 1 1 1 1 1 1 1 1 1 1 1 1 1 1 1 1 1 1 1 1 1 1 1 1 1 1 1 1 1 1 1 1 1 1 1 1 1 1 1 1 1 1 1 1 1 
1 1 1 1 1 1 1 1 1 1 1 1 1 1 1 1 1 1 1 1 1 1 1 1 1 1 1 1 1 1 1 1 1 1 1 1 1 1 1 1 1 1 1 1 1 1 1 1 
1 1 1 1 1 1 1 1 1 1 1 1 1 1 1 1 1 1 1 1 1 1 1 1 1 1 1 1 1 1 1 1 1 1 1 1 1 1 1 1 1 1 1 1 1 1 1 1 
1 1 1 1 1 1 1 1 1 1 1 1 1 1 1 1 1 1 1 1 1 1 1 1 1 1 1 1 1 1 1 1 1 1 1 1 1 1 1 1 1 1 1 1 1 1 1 1 
0.01 0.01 0.01 0.01 0.01 0.01 0.01 0.01 0.01 0.01 0.01 0.01 0.01 0.01 0.01 0.01 0.01 0.01 0.01 0.01 0.01 0.01 0.01 0.01 0.01 0.01 0.01 0.01 0.01 0.01 0.01 0.01 0.01 0.01 0.01 0.01 0.01 0.01 0.01 0.01 0.01 0.01 0.01 0.01 0.01 0.01 0.01 0.01 
0.02 0.02 0.02 0.02 0.02 0.02 0.02 0.02 0.02 0.02 0.02 0.02 0.02 0.02 0.02 0.02 0.02 0.02 0.02 0.02 0.02 0.02 0.02 0.02 0.02 0.02 0.02 0.02 0.02 0.02 0.02 0.02 0.02 0.02 0.02 0.02 0.02 0.02 0.02 0.02 0.02 0.02 0.02 0.02 0.02 0.02 0.02 0.02 
0.03 0.03 0.03 0.03 0.03 0.03 0.03 0.03 0.03 0.03 0.03 0.03 0.03 0.03 0.03 0.03 0.03 0.03 0.03 0.03 0.03 0.03 0.03 0.03 0.03 0.03 0.03 0.03 0.03 0.03 0.03 0.03 0.03 0.03 0.03 0.03 0.03 0.03 0.03 0.03 0.03 0.03 0.03 0.03 0.03 0.03 0.03 0.03 
0.04 0.04 0.04 0.04 0.04 0.04 0.04 0.04 0.04 0.04 0.04 0.04 0.04 0.04 0.04 0.04 0.04 0.04 0.04 0.04 0.04 0.04 0.04 0.04 0.04 0.04 0.04 0.04 0.04 0.04 0.04 0.04 0.04 0.04 0.04 0.04 0.04 0.04 0.04 0.04 0.04 0.04 0.04 0.04 0.04 0.04 0.04 0.04 
0.05 0.05 0.05 0.05 0.05 0.05 0.05 0.05 0.05 0.05 0.05 0.05 0.05 0.05 0.05 0.05 0.05 0.05 0.05 0.05 0.05 0.05 0.05 0.05 0.05 0.05 0.05 0.05 0.05 0.05 0.05 0.05 0.05 0.05 0.05 0.05 0.05 0.05 0.05 0.05 0.05 0.05 0.05 0.05 0.05 0.05 0.05 0.05 
0.06 0.06 0.06 0.06 0.06 0.06 0.06 0.06 0.06 0.06 0.06 0.06 0.06 0.06 0.06 0.06 0.06 0.06 0.06 0.06 0.06 0.06 0.06 0.06 0.06 0.06 0.06 0.06 0.06 0.06 0.06 0.06 0.06 0.06 0.06 0.06 0.06 0.06 0.06 0.06 0.06 0.06 0.06 0.06 0.06 0.06 0.06 0.06 
0.07 0.07 0.07 0.07 0.07 0.07 0.07 0.07 0.07 0.07 0.07 0.07 0.07 0.07 0.07 0.07 0.07 0.07 0.07 0.07 0.07 0.07 0.07 0.07 0.07 0.07 0.07 0.07 0.07 0.07 0.07 0.07 0.07 0.07 0.07 0.07 0.07 0.07 0.07 0.07 0.07 0.07 0.07 0.07 0.07 0.07 0.07 0.07 
0.2 0.2 0.2 0.2 0.2 0.2 0.2 0.2 0.2 0.2 0.2 0.2 0.2 0.2 0.2 0.2 0.2 0.2 0.2 0.2 0.2 0.2 0.2 0.2 0.2 0.2 0.2 0.2 0.2 0.2 0.2 0.2 0.2 0.2 0.2 0.2 0.2 0.2 0.2 0.2 0.2 0.2 0.2 0.2 0.2 0.2 0.2 0.2 
0.4 0.4 0.4 0.4 0.4 0.4 0.4 0.4 0.4 0.4 0.4 0.4 0.4 0.4 0.4 0.4 0.4 0.4 0.4 0.4 0.4 0.4 0.4 0.4 0.4 0.4 0.4 0.4 0.4 0.4 0.4 0.4 0.4 0.4 0.4 0.4 0.4 0.4 0.4 0.4 0.4 0.4 0.4 0.4 0.4 0.4 0.4 0.4 
0.6 0.6 0.6 0.6 0.6 0.6 0.6 0.6 0.6 0.6 0.6 0.6 0.6 0.6 0.6 0.6 0.6 0.6 0.6 0.6 0.6 0.6 0.6 0.6 0.6 0.6 0.6 0.6 0.6 0.6 0.6 0.6 0.6 0.6 0.6 0.6 0.6 0.6 0.6 0.6 0.6 0.6 0.6 0.6 0.6 0.6 0.6 0.6 
0.8 0.8 0.8 0.8 0.8 0.8 0.8 0.8 0.8 0.8 0.8 0.8 0.8 0.8 0.8 0.8 0.8 0.8 0.8 0.8 0.8 0.8 0.8 0.8 0.8 0.8 0.8 0.8 0.8 0.8 0.8 0.8 0.8 0.8 0.8 0.8 0.8 0.8 0.8 0.8 0.8 0.8 0.8 0.8 0.8 0.8 0.8 0.8 
1 1 1 1 1 1 1 1 1 1 1 1 1 1 1 1 1 1 1 1 1 1 1 1 1 1 1 1 1 1 1 1 1 1 1 1 1 1 1 1 1 1 1 1 1 1 1 1 
